
Gurobi 8.0.1 (mac64, Python) logging started Fri Oct  5 14:16:03 2018

Academic license - for non-commercial use only

Gurobi 8.0.1 (mac64, Python) logging started Fri Oct  5 14:16:15 2018

Academic license - for non-commercial use only

Gurobi 8.0.1 (mac64, Python) logging started Fri Oct  5 14:16:27 2018

Academic license - for non-commercial use only
